<?xml version = "1.0" standalone="yes"?>
<!-- This file has been generated by DOcplex version 2.23.222  -->
<CPLEXSolution version="1.0">
 <header
   problemName="CVRP"
   objectiveValue="9177.05"
  />
 <variables>
  <variable name="x_0_1" index="0" value="1.00000"/>
  <variable name="x_0_2" index="1" value="1.00000"/>
  <variable name="x_0_3" index="2" value="1.00000"/>
  <variable name="x_0_5" index="4" value="1.00000"/>
  <variable name="x_0_8" index="7" value="1.00000"/>
  <variable name="x_0_9" index="8" value="1.00000"/>
  <variable name="x_0_10" index="9" value="1.00000"/>
  <variable name="x_0_13" index="12" value="1.00000"/>
  <variable name="x_0_14" index="13" value="1.00000"/>
  <variable name="x_1_0" index="14" value="1.00000"/>
  <variable name="x_2_4" index="31" value="1.00000"/>
  <variable name="x_3_0" index="42" value="1.00000"/>
  <variable name="x_4_0" index="56" value="1.00000"/>
  <variable name="x_5_7" index="76" value="1.00000"/>
  <variable name="x_6_0" index="84" value="1.00000"/>
  <variable name="x_7_0" index="98" value="1.00000"/>
  <variable name="x_8_12" index="123" value="1.00000"/>
  <variable name="x_9_0" index="126" value="1.00000"/>
  <variable name="x_10_0" index="140" value="1.00000"/>
  <variable name="x_11_0" index="154" value="1.00000"/>
  <variable name="x_12_6" index="174" value="1.00000"/>
  <variable name="x_13_11" index="193" value="1.00000"/>
  <variable name="x_14_0" index="196" value="1.00000"/>
  <variable name="u_1" index="210" value="45.00000"/>
  <variable name="u_2" index="211" value="22.00000"/>
  <variable name="u_3" index="212" value="29.00000"/>
  <variable name="u_4" index="213" value="28.00000"/>
  <variable name="u_5" index="214" value="35.00000"/>
  <variable name="u_6" index="215" value="49.00000"/>
  <variable name="u_7" index="216" value="47.00000"/>
  <variable name="u_8" index="217" value="16.00000"/>
  <variable name="u_9" index="218" value="43.00000"/>
  <variable name="u_10" index="219" value="34.00000"/>
  <variable name="u_11" index="220" value="42.00000"/>
  <variable name="u_12" index="221" value="45.00000"/>
  <variable name="u_13" index="222" value="32.00000"/>
  <variable name="u_14" index="223" value="31.00000"/>
 </variables>
</CPLEXSolution>
